outputs/case_204.model.txt
crime_outside_roc = False
stop_or_correct_ordered = False
violate_article_36_2 = False
penalty_officer_imprison_or_fine_1_to_15 = False
penalty_fine_institution = False
stop_or_correct_not_done_or_repeat = False
penalty_imprison_or_fine_1500 = False
violate_article_36_1 = False
violate_ministry_order = False
penalty = False
violate_article_36_1_or_2 = False
stop_or_correct_not_done = False
applicable_outside_roc = False
repeat_violation_after_stop = False
penalty_fine_200_to_1000 = False